n = 12;

R =
[|0,2,2,0,0,0,0,0,0,3,0,0,
 |0,0,0,0,3,3,3,0,0,3,0,0,
 |0,0,0,0,3,3,3,3,0,3,0,0,
 |1,0,0,0,3,0,4,0,1,1,0,0,
 |0,1,0,0,3,2,4,0,0,6,0,0,
 |0,1,0,1,1,2,4,0,0,6,0,0,
 |3,3,3,0,0,0,4,0,0,6,0,4,
 |0,0,1,0,0,1,0,2,2,6,3,4,
 |0,0,0,2,2,0,0,0,0,6,3,4,
 |0,0,0,0,2,4,4,4,4,6,3,4,
 |0,0,0,0,2,0,0,0,0,0,0,0,
 |0,0,0,0,0,0,0,0,0,0,0,0,
 |];

